(set-logic QF_LRA)
(declare-fun T1 () Real )
(declare-fun T2 () Real )
(declare-fun T3 () Real )
(declare-fun T4 () Real )
(declare-fun T5 () Real )
(declare-fun T6 () Real )
(declare-fun Z () Real )
(declare-fun k () Real )
(assert (let
(( $goal (>= Z k) ))
(let
((
$phi ( and 
(or ( <= ( + T1 46 ) T2 ) ( <= ( + T2 13 ) T1 ) )
(or ( <= ( + T1 55 )  ( + T2 13 ) ) ( <= ( + T2 95 )( + T1 46 ) ) )
(or ( <= ( + T1 131 )  ( + T2 95 ) ) ( <= ( + T2 146 )( + T1 55 ) ) )
(or ( <= ( + T1 186 )  ( + T2 146 ) ) ( <= ( + T2 192 )( + T1 131 ) ) )
(or ( <= ( + T1 46 ) T3 ) ( <= ( + T3 26 ) T1 ) )
(or ( <= ( + T1 55 )  ( + T3 26 ) ) ( <= ( + T3 110 )( + T1 46 ) ) )
(or ( <= ( + T1 131 )  ( + T3 110 ) ) ( <= ( + T3 138 )( + T1 55 ) ) )
(or ( <= ( + T1 186 )  ( + T3 138 ) ) ( <= ( + T3 175 )( + T1 131 ) ) )
(or ( <= ( + T1 46 ) T4 ) ( <= ( + T4 62 ) T1 ) )
(or ( <= ( + T1 55 )  ( + T4 62 ) ) ( <= ( + T4 144 )( + T1 46 ) ) )
(or ( <= ( + T1 131 )  ( + T4 144 ) ) ( <= ( + T4 225 )( + T1 55 ) ) )
(or ( <= ( + T1 186 )  ( + T4 225 ) ) ( <= ( + T4 306 )( + T1 131 ) ) )
(or ( <= ( + T1 46 ) T5 ) ( <= ( + T5 13 ) T1 ) )
(or ( <= ( + T1 55 )  ( + T5 13 ) ) ( <= ( + T5 59 )( + T1 46 ) ) )
(or ( <= ( + T1 131 )  ( + T5 59 ) ) ( <= ( + T5 140 )( + T1 55 ) ) )
(or ( <= ( + T1 186 )  ( + T5 140 ) ) ( <= ( + T5 185 )( + T1 131 ) ) )
(or ( <= ( + T1 46 ) T6 ) ( <= ( + T6 20 ) T1 ) )
(or ( <= ( + T1 55 )  ( + T6 20 ) ) ( <= ( + T6 51 )( + T1 46 ) ) )
(or ( <= ( + T1 131 )  ( + T6 51 ) ) ( <= ( + T6 115 )( + T1 55 ) ) )
(or ( <= ( + T1 186 )  ( + T6 115 ) ) ( <= ( + T6 156 )( + T1 131 ) ) )
(or ( <= ( + T2 13 ) T3 ) ( <= ( + T3 26 ) T2 ) )
(or ( <= ( + T2 95 )  ( + T3 26 ) ) ( <= ( + T3 110 )( + T2 13 ) ) )
(or ( <= ( + T2 146 )  ( + T3 110 ) ) ( <= ( + T3 138 )( + T2 95 ) ) )
(or ( <= ( + T2 192 )  ( + T3 138 ) ) ( <= ( + T3 175 )( + T2 146 ) ) )
(or ( <= ( + T2 13 ) T4 ) ( <= ( + T4 62 ) T2 ) )
(or ( <= ( + T2 95 )  ( + T4 62 ) ) ( <= ( + T4 144 )( + T2 13 ) ) )
(or ( <= ( + T2 146 )  ( + T4 144 ) ) ( <= ( + T4 225 )( + T2 95 ) ) )
(or ( <= ( + T2 192 )  ( + T4 225 ) ) ( <= ( + T4 306 )( + T2 146 ) ) )
(or ( <= ( + T2 13 ) T5 ) ( <= ( + T5 13 ) T2 ) )
(or ( <= ( + T2 95 )  ( + T5 13 ) ) ( <= ( + T5 59 )( + T2 13 ) ) )
(or ( <= ( + T2 146 )  ( + T5 59 ) ) ( <= ( + T5 140 )( + T2 95 ) ) )
(or ( <= ( + T2 192 )  ( + T5 140 ) ) ( <= ( + T5 185 )( + T2 146 ) ) )
(or ( <= ( + T2 13 ) T6 ) ( <= ( + T6 20 ) T2 ) )
(or ( <= ( + T2 95 )  ( + T6 20 ) ) ( <= ( + T6 51 )( + T2 13 ) ) )
(or ( <= ( + T2 146 )  ( + T6 51 ) ) ( <= ( + T6 115 )( + T2 95 ) ) )
(or ( <= ( + T2 192 )  ( + T6 115 ) ) ( <= ( + T6 156 )( + T2 146 ) ) )
(or ( <= ( + T3 26 ) T4 ) ( <= ( + T4 62 ) T3 ) )
(or ( <= ( + T3 110 )  ( + T4 62 ) ) ( <= ( + T4 144 )( + T3 26 ) ) )
(or ( <= ( + T3 138 )  ( + T4 144 ) ) ( <= ( + T4 225 )( + T3 110 ) ) )
(or ( <= ( + T3 175 )  ( + T4 225 ) ) ( <= ( + T4 306 )( + T3 138 ) ) )
(or ( <= ( + T3 26 ) T5 ) ( <= ( + T5 13 ) T3 ) )
(or ( <= ( + T3 110 )  ( + T5 13 ) ) ( <= ( + T5 59 )( + T3 26 ) ) )
(or ( <= ( + T3 138 )  ( + T5 59 ) ) ( <= ( + T5 140 )( + T3 110 ) ) )
(or ( <= ( + T3 175 )  ( + T5 140 ) ) ( <= ( + T5 185 )( + T3 138 ) ) )
(or ( <= ( + T3 26 ) T6 ) ( <= ( + T6 20 ) T3 ) )
(or ( <= ( + T3 110 )  ( + T6 20 ) ) ( <= ( + T6 51 )( + T3 26 ) ) )
(or ( <= ( + T3 138 )  ( + T6 51 ) ) ( <= ( + T6 115 )( + T3 110 ) ) )
(or ( <= ( + T3 175 )  ( + T6 115 ) ) ( <= ( + T6 156 )( + T3 138 ) ) )
(or ( <= ( + T4 62 ) T5 ) ( <= ( + T5 13 ) T4 ) )
(or ( <= ( + T4 144 )  ( + T5 13 ) ) ( <= ( + T5 59 )( + T4 62 ) ) )
(or ( <= ( + T4 225 )  ( + T5 59 ) ) ( <= ( + T5 140 )( + T4 144 ) ) )
(or ( <= ( + T4 306 )  ( + T5 140 ) ) ( <= ( + T5 185 )( + T4 225 ) ) )
(or ( <= ( + T4 62 ) T6 ) ( <= ( + T6 20 ) T4 ) )
(or ( <= ( + T4 144 )  ( + T6 20 ) ) ( <= ( + T6 51 )( + T4 62 ) ) )
(or ( <= ( + T4 225 )  ( + T6 51 ) ) ( <= ( + T6 115 )( + T4 144 ) ) )
(or ( <= ( + T4 306 )  ( + T6 115 ) ) ( <= ( + T6 156 )( + T4 225 ) ) )
(or ( <= ( + T5 13 ) T6 ) ( <= ( + T6 20 ) T5 ) )
(or ( <= ( + T5 59 )  ( + T6 20 ) ) ( <= ( + T6 51 )( + T5 13 ) ) )
(or ( <= ( + T5 140 )  ( + T6 51 ) ) ( <= ( + T6 115 )( + T5 59 ) ) )
(or ( <= ( + T5 185 )  ( + T6 115 ) ) ( <= ( + T6 156 )( + T5 140 ) ) )
( <= ( + T1 186 ) Z)
( <= ( + T2 192 ) Z)
( <= ( + T3 175 ) Z)
( <= ( + T4 306 ) Z)
( <= ( + T5 185 ) Z)
( <= ( + T6 156 ) Z)
( >= T1 0 )
( >= T2 0 )
( >= T3 0 )
( >= T4 0 )
( >= T5 0 )
( >= T6 0 )
) )
)(=> $phi $goal))))